50
1000
699
691
691
687
667
651
650
648
635
634
574
558
536
523
518
517
508
505
499
490
489
489
480
480
471
422
417
408
400
368
363
346
333
319
310
281
273
272
246
234
232
229
217
208
207
179
172
165
149
130
